c This is a random SAT instance with 10 variables and 20 clauses
p cnf 10 20
-2 2 -4 -1 -6 6 7 5 0
9 -7 -1 6 0
-6 2 0
4 -1 5 -6 -4 -10 -2 -8 0
4 -8 2 -7 0
-10 9 -3 -6 0
-6 -1 0
10 9 6 -9 -3 -1 -6 7 -8 0
4 -2 1 -5 5 3 -4 -10 -1 6 0
-6 -7 6 7 -9 8 2 0
-7 6 10 -4 -8 0
6 -3 1 7 4 -7 -5 10 -4 0
5 -10 1 -1 3 -6 7 -5 4 -7 0
8 1 -3 -5 7 5 9 0
-10 -6 4 -1 0
2 -8 -7 10 6 8 9 0
-1 -8 5 -10 4 -9 1 6 0
-1 -9 -5 1 7 9 0
8 -6 7 -7 -2 0
-5 -10 0